
Gurobi 13.0.2 (win64) logging started Fri Jul 24 04:47:50 2026

Set parameter LogFile to value "E:\codes\ExactEBRP\results\gf_c0_mechanism_transfer_c5_round30\development\V12_M2__c5_candidate__60s\external\native_logs\L2.0.1.0.0.1.1.0_partial_target_mip.gurobi.log"
Gurobi Optimizer version 13.0.2 build v13.0.2rc1 (win64 - Windows 10.0 (19045.2))

CPU model: 12th Gen Intel(R) Core(TM) i7-12700KF, instruction set [SSE2|AVX|AVX2]
Thread count: 12 physical cores, 20 logical processors, using up to 1 threads

Non-default parameters:
TimeLimit  35.6215402
MIPGap  0
MIPGapAbs  0
LogToConsole  0
Threads  1

Optimize a model with 11351 rows, 1034 columns and 113600 nonzeros (Min)
Model fingerprint: 0x78ff9969
Model has 13 linear objective coefficients
Variable types: 516 continuous, 518 integer (434 binary)
Coefficient statistics:
  Matrix range     [5e-05, 1e+05]
  Objective range  [5e-05, 1e+00]
  Bounds range     [4e-01, 3e+02]
  RHS range        [2e-01, 1e+06]

Presolve removed 1183 rows and 33 columns
Presolve time: 0.26s
Presolved: 10168 rows, 1001 columns, 134230 nonzeros
Variable types: 487 continuous, 514 integer (430 binary)
Root relaxation presolved: 10129 rows, 978 columns, 134143 nonzeros

Warning: very big Kappa = 2.29579e+12, try parameter NumericFocus

Root relaxation: infeasible, 1157 iterations, 0.14 seconds (0.42 work units)

    Nodes    |    Current Node    |     Objective Bounds      |     Work
 Expl Unexpl |  Obj  Depth IntInf | Incumbent    BestBd   Gap | It/Node Time

     0     0 infeasible    0               - infeasible      -     -    0s

Explored 1 nodes (1157 simplex iterations) in 0.45 seconds (0.95 work units)
Thread count was 1 (of 20 available processors)

Solution count 0

Model is infeasible
Best objective -, best bound -, gap -

User-callback calls 637, time in user-callback 0.00 sec
